% Logging successfully configured
%%%mzn-stat: initTime=0.149080773
%%%mzn-stat: objective=977
%%%mzn-stat: nodes=86
%%%mzn-stat: restarts=0
%%%mzn-stat: peakDepth=75
%%%mzn-stat: solveTime=0.000631706
%%%mzn-stat: variables=209
%%%mzn-stat: propagators=319
%%%mzn-stat: failures=7
%%%mzn-stat: propagations=2052
%%%mzn-stat: nogoods=7
%%%mzn-stat: numAtomicConstraintsPropagated=0
%%%mzn-stat: circuitNumber191PropagationsThatFoundConflict=4
%%%mzn-stat: circuitNumber191TotalFixedEdgesAtConflict=68
%%%mzn-stat: circuitNumber191NumberOfConflicts=4
%%%mzn-stat: circuitNumber191PropagationsThatPruned=9
%%%mzn-stat: circuitNumber191PropagationsTotal=29
%%%mzn-stat: AverageConflictSize=4.142857142857143
%%%mzn-stat: NumUnitNogoodsLearned=0
%%%mzn-stat: AverageLearnedNogoodLength=4.428571428571429
%%%mzn-stat: AverageBacktrackAmount=0
%%%mzn-stat: AverageLbd=3.2857142857142856
%%%mzn-stat: 2AutonomousSearchNumBackupCalled=69
%%%mzn-stat: 2AutonomousSearchNumPredicatesRemoved=0
%%%mzn-stat: 2AutonomousSearchNumCalls=70
%%%mzn-stat: 2AutonomousSearchNumPredicatesAdded=142
%%%mzn-stat: 2AutonomousSearchAverageSizeOfHeap=2.0285714285714285
%%%mzn-stat: 2AutonomousSearchNumAssignedPredicatesEncountered=142
%%%mzn-stat-end
maxleg = 977;
succ = array1d(1..20,[4, 3, 8, 12, 10, 17, 6, 14, 11, 18, 13, 16, 7, 5, 19, 2, 15, 20, 1, 9]);
% time elapsed: 13.50 s
----------
%%%mzn-stat: initTime=0.149080773
%%%mzn-stat: objective=857
%%%mzn-stat: nodes=167
%%%mzn-stat: restarts=0
%%%mzn-stat: peakDepth=76
%%%mzn-stat: solveTime=0.001285282
%%%mzn-stat: variables=209
%%%mzn-stat: propagators=319
%%%mzn-stat: failures=13
%%%mzn-stat: propagations=3888
%%%mzn-stat: nogoods=13
%%%mzn-stat: numAtomicConstraintsPropagated=0
%%%mzn-stat: circuitNumber191PropagationsThatFoundConflict=10
%%%mzn-stat: circuitNumber191TotalFixedEdgesAtConflict=170
%%%mzn-stat: circuitNumber191NumberOfConflicts=10
%%%mzn-stat: circuitNumber191PropagationsThatPruned=20
%%%mzn-stat: circuitNumber191PropagationsTotal=57
%%%mzn-stat: AverageConflictSize=6.615384615384615
%%%mzn-stat: NumUnitNogoodsLearned=0
%%%mzn-stat: AverageLearnedNogoodLength=5.846153846153846
%%%mzn-stat: AverageBacktrackAmount=0
%%%mzn-stat: AverageLbd=3.923076923076923
%%%mzn-stat: 2AutonomousSearchNumBackupCalled=135
%%%mzn-stat: 2AutonomousSearchNumPredicatesRemoved=0
%%%mzn-stat: 2AutonomousSearchNumCalls=137
%%%mzn-stat: 2AutonomousSearchNumPredicatesAdded=370
%%%mzn-stat: 2AutonomousSearchAverageSizeOfHeap=2.948905109489051
%%%mzn-stat: 2AutonomousSearchNumAssignedPredicatesEncountered=404
%%%mzn-stat-end
maxleg = 857;
succ = array1d(1..20,[4, 3, 8, 12, 15, 10, 6, 14, 11, 17, 13, 16, 7, 18, 19, 2, 5, 20, 1, 9]);
% time elapsed: 13.50 s
----------
%%%mzn-stat: initTime=0.149080773
%%%mzn-stat: objective=703
%%%mzn-stat: nodes=255
%%%mzn-stat: restarts=0
%%%mzn-stat: peakDepth=76
%%%mzn-stat: solveTime=0.002688545
%%%mzn-stat: variables=209
%%%mzn-stat: propagators=319
%%%mzn-stat: failures=30
%%%mzn-stat: propagations=7199
%%%mzn-stat: nogoods=30
%%%mzn-stat: numAtomicConstraintsPropagated=0
%%%mzn-stat: circuitNumber191PropagationsThatFoundConflict=14
%%%mzn-stat: circuitNumber191TotalFixedEdgesAtConflict=233
%%%mzn-stat: circuitNumber191NumberOfConflicts=14
%%%mzn-stat: circuitNumber191PropagationsThatPruned=41
%%%mzn-stat: circuitNumber191PropagationsTotal=100
%%%mzn-stat: AverageConflictSize=5.133333333333334
%%%mzn-stat: NumUnitNogoodsLearned=0
%%%mzn-stat: AverageLearnedNogoodLength=6.4
%%%mzn-stat: AverageBacktrackAmount=0
%%%mzn-stat: AverageLbd=3.933333333333333
%%%mzn-stat: 2AutonomousSearchNumBackupCalled=199
%%%mzn-stat: 2AutonomousSearchNumPredicatesRemoved=0
%%%mzn-stat: 2AutonomousSearchNumCalls=202
%%%mzn-stat: 2AutonomousSearchNumPredicatesAdded=714
%%%mzn-stat: 2AutonomousSearchAverageSizeOfHeap=3.792079207920792
%%%mzn-stat: 2AutonomousSearchNumAssignedPredicatesEncountered=766
%%%mzn-stat-end
maxleg = 703;
succ = array1d(1..20,[4, 3, 8, 12, 19, 10, 6, 14, 11, 17, 13, 16, 7, 18, 5, 2, 15, 20, 1, 9]);
% time elapsed: 13.50 s
----------
%%%mzn-stat: initTime=0.149080773
%%%mzn-stat: objective=679
%%%mzn-stat: nodes=344
%%%mzn-stat: restarts=0
%%%mzn-stat: peakDepth=76
%%%mzn-stat: solveTime=0.004380418
%%%mzn-stat: variables=209
%%%mzn-stat: propagators=319
%%%mzn-stat: failures=46
%%%mzn-stat: propagations=11402
%%%mzn-stat: nogoods=46
%%%mzn-stat: numAtomicConstraintsPropagated=0
%%%mzn-stat: circuitNumber191PropagationsThatFoundConflict=18
%%%mzn-stat: circuitNumber191TotalFixedEdgesAtConflict=297
%%%mzn-stat: circuitNumber191NumberOfConflicts=18
%%%mzn-stat: circuitNumber191PropagationsThatPruned=65
%%%mzn-stat: circuitNumber191PropagationsTotal=150
%%%mzn-stat: AverageConflictSize=4.695652173913044
%%%mzn-stat: NumUnitNogoodsLearned=0
%%%mzn-stat: AverageLearnedNogoodLength=6.586956521739131
%%%mzn-stat: AverageBacktrackAmount=0
%%%mzn-stat: AverageLbd=4.108695652173913
%%%mzn-stat: 2AutonomousSearchNumBackupCalled=262
%%%mzn-stat: 2AutonomousSearchNumPredicatesRemoved=0
%%%mzn-stat: 2AutonomousSearchNumCalls=266
%%%mzn-stat: 2AutonomousSearchNumPredicatesAdded=1127
%%%mzn-stat: 2AutonomousSearchAverageSizeOfHeap=4.654135338345864
%%%mzn-stat: 2AutonomousSearchNumAssignedPredicatesEncountered=1238
%%%mzn-stat-end
maxleg = 679;
succ = array1d(1..20,[4, 12, 8, 3, 19, 10, 6, 14, 11, 17, 13, 16, 7, 18, 5, 1, 15, 20, 2, 9]);
% time elapsed: 13.50 s
----------
==========
% time elapsed: 13.50 s
%%%mzn-stat: initTime=0.149080773
%%%mzn-stat: objective=679
%%%mzn-stat: nodes=397
%%%mzn-stat: restarts=0
%%%mzn-stat: peakDepth=76
%%%mzn-stat: solveTime=0.008313452
%%%mzn-stat: variables=209
%%%mzn-stat: propagators=319
%%%mzn-stat: failures=98
%%%mzn-stat: propagations=19076
%%%mzn-stat: nogoods=98
%%%mzn-stat: numAtomicConstraintsPropagated=0
%%%mzn-stat: circuitNumber191PropagationsThatFoundConflict=45
%%%mzn-stat: circuitNumber191TotalFixedEdgesAtConflict=582
%%%mzn-stat: circuitNumber191NumberOfConflicts=45
%%%mzn-stat: circuitNumber191PropagationsThatPruned=116
%%%mzn-stat: circuitNumber191PropagationsTotal=267
%%%mzn-stat: AverageConflictSize=5.469387755102041
%%%mzn-stat: NumUnitNogoodsLearned=1
%%%mzn-stat: AverageLearnedNogoodLength=7.73469387755102
%%%mzn-stat: AverageBacktrackAmount=0
%%%mzn-stat: AverageLbd=3.7551020408163267
%%%mzn-stat: 2AutonomousSearchNumBackupCalled=262
%%%mzn-stat: 2AutonomousSearchNumPredicatesRemoved=0
%%%mzn-stat: 2AutonomousSearchNumCalls=266
%%%mzn-stat: 2AutonomousSearchNumPredicatesAdded=1581
%%%mzn-stat: 2AutonomousSearchAverageSizeOfHeap=4.654135338345864
%%%mzn-stat: 2AutonomousSearchNumAssignedPredicatesEncountered=1238
%%%mzn-stat-end
